(declare-datatype Nat ((zero) (succ (p Nat))))
(declare-datatype list ((nil) (cons (head Nat) (tail list))))
(declare-fun plus (Nat Nat) Nat)
(declare-fun leq (Nat Nat) Bool)
(declare-fun insert2 (Nat list) list)
(declare-fun isort (list) list)
(declare-fun count (Nat list) Nat)
(assert
  (forall ((x Nat) (y Nat) (z Nat))
    (= (plus x (plus y z)) (plus (plus x y) z))))
(assert (forall ((x Nat) (y Nat)) (= (plus x y) (plus y x))))
(assert (forall ((x Nat)) (= (plus x zero) x)))
(assert (forall ((x Nat)) (= (plus zero x) x)))
(assert (= (isort nil) nil))
(assert (forall ((y Nat)) (= (plus zero y) y)))
(assert
  (forall ((y Nat) (z Nat)) (= (plus (succ z) y) (succ (plus z y)))))
(assert (forall ((y Nat)) (leq zero y)))
(assert (forall ((z Nat)) (not (leq (succ z) zero))))
(assert
  (forall ((z Nat) (x2 Nat))
    (= (leq (succ z) (succ x2)) (leq z x2))))
(assert (forall ((x Nat)) (= (insert2 x nil) (cons x nil))))
(assert
  (forall ((x Nat) (z Nat) (xs list))
    (=> (not (leq x z))
      (= (insert2 x (cons z xs)) (cons z (insert2 x xs))))))
(assert
  (forall ((x Nat) (z Nat) (xs list))
    (=> (leq x z) (= (insert2 x (cons z xs)) (cons x (cons z xs))))))
(assert
  (forall ((y Nat) (xs list))
    (= (isort (cons y xs)) (insert2 y (isort xs)))))
(assert (forall ((x Nat)) (= (count x nil) zero)))
(assert
  (forall ((x Nat) (z Nat) (ys list))
    (=> (distinct x z) (= (count x (cons z ys)) (count x ys)))))
(assert
  (forall ((x Nat) (z Nat) (ys list))
    (=> (= x z)
      (= (count x (cons z ys)) (plus (succ zero) (count x ys))))))
(assert
  (not
    (forall ((x Nat) (xs list))
      (= (count x (isort xs)) (count x xs)))))
(check-sat)
